
  32    4
  10   10   10   10

   0   0   0   0   0   1 2 
   5   1   1   1   0   2 6 3 
   7   1   2   8   0   1 4 
   7   7   0   2   1   1 5 
   7   3   4   0   6   3 11 10 7 
   1   3   5   0   4   3 11 10 7 
   9   3   0   3   3   1 8 
   4   0   4   5   4   1 9 
   5   5   3   0   6   3 18 15 12 
   8   4   6   0   6   3 18 15 13 
   8   5   0   4   3   2 15 13 
   2   0   4   1   5   1 13 
   5   4   6   7   0   1 14 
   8   3  10   4   0   1 16 
   7   5   3   5   0   1 16 
   3   0   2   2   6   2 19 17 
   7   5   0   4   5   1 20 
  10   4   4   0   1   1 19 
   8   3   0   2   3   1 21 
   3   4   6   0   2   1 21 
   2   4   1   0   5   2 24 22 
   4   0   2   5   4   1 23 
   9   0   3   5   3   2 27 25 
   7   5   4   4   0   2 27 25 
   9   3   5   3   0   1 26 
   8   6   4   0   3   1 28 
   5   0   3   5   3   1 29 
   3   0   3   3   4   1 30 
   1   0   2   3   5   1 30 
   3   6   0   4   5   1 31 
   5   0   9   8   5   1 32
   0   0   0   0   0   0 
